solution status: optimal solution found
objective value:                                   35
x81                                                 1 	(obj:1)
x82                                                 1 	(obj:1)
x84                                                 1 	(obj:1)
x85                                                 1 	(obj:1)
x86                                                 1 	(obj:1)
x96                                                 1 	(obj:1)
x97                                                 1 	(obj:1)
x106                                                1 	(obj:1)
x107                                                1 	(obj:1)
x109                                                1 	(obj:1)
x112                                                1 	(obj:1)
x113                                                1 	(obj:1)
x114                                                1 	(obj:1)
x126                                                1 	(obj:1)
x128                                                1 	(obj:1)
x130                                                1 	(obj:1)
x134                                                1 	(obj:1)
x135                                                1 	(obj:1)
x136                                                1 	(obj:1)
x137                                                1 	(obj:1)
x138                                                1 	(obj:1)
x150                                                1 	(obj:1)
x151                                                1 	(obj:1)
x152                                                1 	(obj:1)
x153                                                1 	(obj:1)
x154                                                1 	(obj:1)
x155                                                1 	(obj:1)
x157                                                1 	(obj:1)
x158                                                1 	(obj:1)
x159                                                1 	(obj:1)
x160                                                1 	(obj:1)
x161                                                1 	(obj:1)
x162                                                1 	(obj:1)
x163                                                1 	(obj:1)
x164                                                1 	(obj:1)
thingy.flush_stage_in_hole_y                       10 	(obj:0)
thingy.flush_stage_in_hole_z                       12 	(obj:0)
thingy.thingy.chamber[2].first.vcollect_y                   18 	(obj:0)
thingy.thingy.chamber[2].first.vcollect_z                   19 	(obj:0)
$_21__3_y                                          21 	(obj:0)
$_21__3_z                                          14 	(obj:0)
$_27__3_y                                          18 	(obj:0)
$_27__3_z                                          20 	(obj:0)
thingy.flush_sieve_hole_y                          16 	(obj:0)
thingy.flush_sieve_hole_z                          12 	(obj:0)
$_24__3_y                                          12 	(obj:0)
$_24__3_z                                           8 	(obj:0)
thingy.flush_prep_outlet_pinholes[1].hole_y                   15 	(obj:0)
thingy.flush_prep_outlet_pinholes[1].hole_z                   18 	(obj:0)
thingy.thingy.chamber[3].first.vcollect_y                   20 	(obj:0)
thingy.thingy.chamber[3].first.vcollect_z                   19 	(obj:0)
thingy.thingy.chamber[9].first.vcollect_y                   19 	(obj:0)
thingy.thingy.chamber[9].first.vcollect_z                   16 	(obj:0)
thingy.thingy.chamber[8].first.vcollect_y                   19 	(obj:0)
thingy.thingy.chamber[8].first.vcollect_z                   14 	(obj:0)
thingy.thingy.prep.vout3_y                         14 	(obj:0)
thingy.thingy.prep.vout3_z                         13 	(obj:0)
thingy.prep_outlet_pinholes[1].hole_y                   19 	(obj:0)
thingy.prep_outlet_pinholes[1].hole_z                   18 	(obj:0)
$_28__3_y                                          16 	(obj:0)
$_28__3_z                                           3 	(obj:0)
thingy.ctrl_sieve_hole_y                           10 	(obj:0)
thingy.ctrl_sieve_hole_z                           13 	(obj:0)
thingy.thingy.chamber[6].first.vcollect_y                   16 	(obj:0)
thingy.thingy.chamber[6].first.vcollect_z                   10 	(obj:0)
thingy.ctrl_sv1_hole_y                             14 	(obj:0)
thingy.ctrl_sv1_hole_z                             14 	(obj:0)
thingy.thingy.chamber[4].first.vcollect_y                   20 	(obj:0)
thingy.thingy.chamber[4].first.vcollect_z                   15 	(obj:0)
$_23__3_y                                          21 	(obj:0)
$_23__3_z                                           8 	(obj:0)
$_17__3_y                                          24 	(obj:0)
$_17__3_z                                          22 	(obj:0)
thingy.flush_sv1_hole_y                            15 	(obj:0)
thingy.flush_sv1_hole_z                            12 	(obj:0)
$_19__3_y                                          24 	(obj:0)
$_19__3_z                                          17 	(obj:0)
thingy.thingy.chamber[7].first.vcollect_y                   15 	(obj:0)
thingy.thingy.chamber[7].first.vcollect_z                   11 	(obj:0)
$_26__3_y                                           8 	(obj:0)
$_26__3_z                                          19 	(obj:0)
thingy.thingy.chamber[1].first.vcollect_y                   16 	(obj:0)
thingy.thingy.chamber[1].first.vcollect_z                   15 	(obj:0)
thingy.thingy.chamber[5].first.vcollect_y                   17 	(obj:0)
thingy.thingy.chamber[5].first.vcollect_z                   13 	(obj:0)
thingy.ctrl_prep_outlet_pinholes[1].hole_y                   15 	(obj:0)
thingy.ctrl_prep_outlet_pinholes[1].hole_z                   14 	(obj:0)
$_20__3_y                                          24 	(obj:0)
$_20__3_z                                          16 	(obj:0)
$_25__3_y                                           8 	(obj:0)
$_25__3_z                                          14 	(obj:0)
$_22__3_y                                          13 	(obj:0)
$_22__3_z                                           8 	(obj:0)
thingy.ctrl_stage_in_hole_y                        17 	(obj:0)
thingy.ctrl_stage_in_hole_z                        17 	(obj:0)
thingy.thingy.chamber[0].first.vcollect_y                   14 	(obj:0)
thingy.thingy.chamber[0].first.vcollect_z                   12 	(obj:0)
